w = 21;
n = 15;
measures = [|5, 15,
|3, 18,
|4, 11,
|3, 14,
|3, 10,
|5, 6,
|3, 9,
|3, 8,
|4, 6,
|3, 7,
|3, 6,
|4, 4,
|3, 5,
|3, 4,
|3, 3,
|];
initial_x = [0, 5, 8, 12, 15, 0, 5, 8, 11, 15, 18, 0, 4, 7, 10];
initial_y = [0, 0, 0, 0, 0, 18, 18, 18, 18, 18, 18, 27, 27, 27, 27];